30
2	4	7	9	13	16	17	18	19	21	25	26	29	0
1	3	5	7	8	10	11	12	13	17	19	23	24	25	26	27	29	30	0
2	9	11	12	16	17	19	21	23	25	26	27	0
1	7	9	10	11	12	14	16	18	20	21	25	27	28	0
2	6	9	10	11	12	17	18	20	23	24	25	27	28	30	0
5	7	8	11	12	14	16	19	21	30	0
1	2	4	6	8	9	13	14	15	16	17	18	21	23	24	27	0
2	6	7	10	11	12	14	15	16	17	20	21	23	25	26	29	30	0
1	3	4	5	7	11	12	13	14	17	18	19	20	21	22	24	26	27	30	0
2	4	5	8	12	13	16	17	19	21	23	26	29	30	0
2	3	4	5	6	8	9	12	20	26	29	0
2	3	4	5	6	8	9	10	11	15	16	18	19	20	25	26	27	28	29	0
1	2	7	9	10	14	15	16	17	18	21	22	23	24	25	26	27	28	29	0
4	6	7	8	9	13	16	17	18	28	0
7	8	12	13	17	18	23	25	26	27	28	0
1	3	4	6	7	8	10	12	13	14	20	21	28	30	0
1	2	3	5	7	8	9	10	13	14	15	18	23	24	25	0
1	4	5	7	9	12	13	14	15	17	19	20	26	27	28	29	0
1	2	3	6	9	10	12	18	21	23	25	26	29	30	0
4	5	8	9	11	12	16	18	24	28	0
1	3	4	6	7	8	9	10	13	16	19	24	25	28	29	0
9	13	23	24	27	28	29	0
2	3	5	7	8	10	13	15	17	19	22	24	26	27	28	29	30	0
2	5	7	9	13	17	20	21	22	23	25	27	28	29	0
1	2	3	4	5	8	12	13	15	17	19	21	24	26	27	28	0
1	2	3	8	9	10	11	12	13	15	18	19	23	25	28	0
2	3	4	5	7	9	12	13	15	18	22	23	24	25	28	29	30	0
4	5	12	13	14	15	16	18	20	21	22	23	24	25	26	27	30	0
1	2	8	10	11	12	13	18	19	21	22	23	24	27	0
2	5	6	8	9	10	16	19	23	27	28	0


comments:
random graph
nodes 30
edges 215
rng seed 325 
